examples/small.smt2.qdimacs
c Symbol table for bitvectors
p cnf 15 20
a 1 2 3 4 0
e 5 6 7 8 9 10 11 12 13 14 15 0
2 13 0
-1 13 0
-2 1 -13 0
5 14 0
6 14 0
7 14 0
8 14 0
9 14 0
10 14 0
11 14 0
3 14 0
1 -13 14 0
-5 -6 -7 -8 -9 -10 -11 -3 -1 -14 0
-5 -6 -7 -8 -9 -10 -11 -3 13 -14 0
2 15 0
-1 15 0
-2 1 -15 0
-3 -1 -2 4 -14 0
-3 15 -2 4 -14 0
-3 15 -2 1 -14 0
